h=8;
w=8;
left=[0, 19, 17, 11, 11, 24, 0, 0];
right=[8, 17, 21, 22, 0, 0, 15, 25];
top=[15, 21, 0, 13, 9, 0, 20, 0];
down=[0, 13, 16, 15, 21, 0, 0, 19];
b=[|7,0,4,2,0,0,0,8|5,0,6,3,8,1,0,0|0,7,1,0,0,6,4,3|3,8,7,4,0,0,0,1|0,2,8,6,0,7,0,5|4,3,5,0,7,8,2,0|6,1,0,0,0,0,0,0|8,0,0,0,6,0,1,4|]